
Gurobi 11.0.3 (linux64) logging started Wed Nov 12 20:22:18 2025

Set parameter LogFile to value "./log/train/CA_500_600_threads_0/CA_77.lp.log"
Set parameter TimeLimit to value 3600
Gurobi Optimizer version 11.0.3 build v11.0.3rc0 (linux64 - "Ubuntu 22.04.5 LTS")

CPU model: AMD Ryzen 9 9900X 12-Core Processor, instruction set [SSE2|AVX|AVX2|AVX512]
Thread count: 12 physical cores, 24 logical processors, using up to 24 threads

Optimize a model with 602 rows, 600 columns and 2778 nonzeros
Model fingerprint: 0x1957c352
Variable types: 0 continuous, 600 integer (600 binary)
Coefficient statistics:
  Matrix range     [1e+00, 1e+00]
  Objective range  [2e+00, 1e+03]
  Bounds range     [1e+00, 1e+00]
  RHS range        [1e+00, 1e+00]
Found heuristic solution: objective 19989.839591
Presolve removed 50 rows and 78 columns
Presolve time: 0.00s
Presolved: 552 rows, 522 columns, 2692 nonzeros
Found heuristic solution: objective 23566.027256
Variable types: 0 continuous, 522 integer (522 binary)
Found heuristic solution: objective 24027.034181

Root relaxation: objective 2.977295e+04, 1223 iterations, 0.03 seconds (0.07 work units)

    Nodes    |    Current Node    |     Objective Bounds      |     Work
 Expl Unexpl |  Obj  Depth IntInf | Incumbent    BestBd   Gap | It/Node Time

     0     0 29772.9520    0  307 24027.0342 29772.9520  23.9%     -    0s
H    0     0                    24188.279991 29772.9520  23.1%     -    0s
H    0     0                    24324.757327 29772.9520  22.4%     -    0s
H    0     0                    25726.344040 29772.9520  15.7%     -    0s
H    0     0                    26127.008396 29772.9520  14.0%     -    0s
     0     0 29645.2797    0  302 26127.0084 29645.2797  13.5%     -    0s
     0     0 29493.7644    0  315 26127.0084 29493.7644  12.9%     -    0s
     0     0 29493.7644    0  315 26127.0084 29493.7644  12.9%     -    0s
H    0     0                    26485.703546 29493.7644  11.4%     -    0s
     0     2 29493.7644    0  315 26485.7035 29493.7644  11.4%     -    0s
H   69    87                    26502.149000 29288.1667  10.5%   206    0s
H   71    87                    26576.166026 29288.1667  10.2%   204    0s
H   75    87                    26662.061879 29288.1667  9.85%   200    0s
H   86   108                    26969.190182 29288.1667  8.60%   191    0s
H   93   108                    27346.719385 29288.1667  7.10%   186    0s
H  135   137                    27458.569083 29288.1667  6.66%   169    0s
H  136   137                    27460.779734 29288.1667  6.65%   170    0s
H  521   322                    27520.758352 29201.6361  6.11%   131    0s
H  530   322                    27537.399271 29099.7140  5.67%   131    0s
H  532   322                    27542.780726 29099.7140  5.65%   131    0s
 12425  2394     cutoff   22      27542.7807 28143.3581  2.18%   104    5s

Explored 32686 nodes (2996956 simplex iterations) in 7.70 seconds (21.00 work units)
Thread count was 24 (of 24 available processors)

Solution count 10: 27542.8 27537.4 27520.8 ... 26502.1

Optimal solution found (tolerance 1.00e-04)
Best objective 2.754278072618e+04, best bound 2.754278072618e+04, gap 0.0000%

User-callback calls 67088, time in user-callback 0.04 sec
